Gurobi Optimizer version 11.0.3 build v11.0.3rc0 (linux64 - "Rocky Linux 9.4 (Blue Onyx)")

CPU model: AMD EPYC 7662 64-Core Processor, instruction set [SSE2|AVX|AVX2]
Thread count: 128 physical cores, 128 logical processors, using up to 32 threads

Optimize a model with 49202824 rows, 23945850 columns and 142251965 nonzeros
Model fingerprint: 0x587dcd6b
Variable types: 0 continuous, 23945850 integer (23945850 binary)
Coefficient statistics:
  Matrix range     [1e+00, 1e+00]
  Objective range  [1e-04, 1e+00]
  Bounds range     [1e+00, 1e+00]
  RHS range        [1e+00, 2e+05]
Presolve removed 0 rows and 0 columns (presolve time = 6s) ...
Presolve removed 6896279 rows and 1062079 columns (presolve time = 10s) ...
Presolve removed 7071336 rows and 2989622 columns (presolve time = 15s) ...
Presolve removed 15737994 rows and 6887066 columns (presolve time = 20s) ...
Presolve removed 15737994 rows and 6898426 columns (presolve time = 26s) ...
Presolve removed 15737994 rows and 6902606 columns (presolve time = 32s) ...
Presolve removed 15737994 rows and 6902606 columns (presolve time = 39s) ...
Presolve removed 15961958 rows and 6902606 columns (presolve time = 45s) ...
Presolve removed 15961958 rows and 6902606 columns (presolve time = 46s) ...
Presolve removed 15961958 rows and 6927119 columns (presolve time = 50s) ...
Presolve removed 15964839 rows and 6930000 columns (presolve time = 57s) ...
Presolve removed 16218187 rows and 7204721 columns (presolve time = 62s) ...
Presolve removed 16218187 rows and 7204721 columns (presolve time = 65s) ...
Presolve removed 16218187 rows and 7204721 columns (presolve time = 73s) ...
Presolve removed 16218187 rows and 7204721 columns (presolve time = 75s) ...
Presolve removed 16218187 rows and 7204721 columns (presolve time = 80s) ...
Presolve removed 16218187 rows and 7204721 columns (presolve time = 85s) ...
Presolve removed 16218187 rows and 7204721 columns (presolve time = 90s) ...
Presolve removed 16307642 rows and 7208774 columns (presolve time = 98s) ...
Presolve removed 16307642 rows and 7208774 columns (presolve time = 107s) ...
Presolve removed 16307642 rows and 7208774 columns (presolve time = 113s) ...
Presolve removed 16307642 rows and 7209650 columns (presolve time = 115s) ...
Presolve removed 16307642 rows and 7216152 columns (presolve time = 121s) ...
Presolve removed 16308573 rows and 7217200 columns (presolve time = 125s) ...
Presolve removed 16308573 rows and 7217200 columns (presolve time = 132s) ...
Presolve removed 16308573 rows and 7217200 columns (presolve time = 135s) ...
Presolve removed 16308573 rows and 7217200 columns (presolve time = 140s) ...
Presolve removed 16308573 rows and 7217200 columns (presolve time = 145s) ...
Presolve removed 16327361 rows and 7223749 columns (presolve time = 154s) ...
Presolve removed 16327361 rows and 7223749 columns (presolve time = 159s) ...
Presolve removed 16327361 rows and 7223749 columns (presolve time = 160s) ...
Presolve removed 16327838 rows and 7226218 columns (presolve time = 166s) ...
Presolve removed 16327838 rows and 7226253 columns (presolve time = 170s) ...
Presolve removed 16327838 rows and 7226253 columns (presolve time = 175s) ...
Presolve removed 16327838 rows and 7226253 columns (presolve time = 180s) ...
Presolve removed 16333961 rows and 7228212 columns (presolve time = 185s) ...
Presolve removed 16333961 rows and 7228212 columns (presolve time = 192s) ...
Presolve removed 16333961 rows and 7228212 columns (presolve time = 195s) ...
Presolve removed 16333961 rows and 7228212 columns (presolve time = 201s) ...
Presolve removed 16333961 rows and 7228212 columns (presolve time = 205s) ...
Presolve removed 16333961 rows and 7228212 columns (presolve time = 211s) ...
Presolve removed 16333961 rows and 7228212 columns (presolve time = 217s) ...
Presolve removed 16333961 rows and 7228212 columns (presolve time = 220s) ...
Presolve removed 16333961 rows and 7228212 columns (presolve time = 225s) ...
Presolve removed 16333961 rows and 7228212 columns (presolve time = 233s) ...
Presolve removed 16333961 rows and 7228212 columns (presolve time = 237s) ...
Presolve removed 16333961 rows and 7228212 columns (presolve time = 240s) ...
Presolve removed 16333961 rows and 7228212 columns (presolve time = 245s) ...
Presolve removed 16333961 rows and 7228212 columns (presolve time = 250s) ...
Presolve removed 16333961 rows and 7228212 columns (presolve time = 255s) ...
Presolve removed 16333961 rows and 7228212 columns (presolve time = 260s) ...
Presolve removed 16333961 rows and 7228212 columns (presolve time = 265s) ...
Presolve removed 16333961 rows and 7228212 columns (presolve time = 270s) ...
Presolve removed 16333961 rows and 7228212 columns (presolve time = 275s) ...
Presolve removed 16333961 rows and 7228212 columns (presolve time = 280s) ...
Presolve removed 26105397 rows and 7228212 columns (presolve time = 286s) ...
Presolve removed 28868040 rows and 8149093 columns (presolve time = 290s) ...
Presolve removed 28868040 rows and 8149093 columns (presolve time = 295s) ...
Presolve removed 28868040 rows and 8149093 columns (presolve time = 300s) ...
Presolve removed 28868040 rows and 8149093 columns (presolve time = 305s) ...
Presolve removed 28868040 rows and 8320811 columns (presolve time = 310s) ...
Presolve removed 28868040 rows and 8389100 columns (presolve time = 316s) ...
Presolve removed 28868040 rows and 8389100 columns (presolve time = 322s) ...
Presolve removed 28868040 rows and 8389100 columns (presolve time = 325s) ...
Presolve removed 28868040 rows and 8487661 columns (presolve time = 331s) ...
Presolve removed 28875758 rows and 8496631 columns (presolve time = 335s) ...
Presolve removed 28875758 rows and 8496631 columns (presolve time = 340s) ...
Presolve removed 28875758 rows and 8496631 columns (presolve time = 345s) ...
Presolve removed 28906054 rows and 8497710 columns (presolve time = 351s) ...
Presolve removed 28906054 rows and 8497710 columns (presolve time = 355s) ...
Presolve removed 28906054 rows and 8498140 columns (presolve time = 360s) ...
Presolve removed 28911250 rows and 8510000 columns (presolve time = 365s) ...
Presolve removed 28914800 rows and 8513717 columns (presolve time = 371s) ...
Presolve removed 28914800 rows and 8513717 columns (presolve time = 375s) ...
Presolve removed 28921920 rows and 8514503 columns (presolve time = 382s) ...
Presolve removed 28921920 rows and 8514503 columns (presolve time = 385s) ...
Presolve removed 28921920 rows and 8514503 columns (presolve time = 390s) ...
Presolve removed 28921920 rows and 8514503 columns (presolve time = 395s) ...
Presolve removed 28921920 rows and 8514503 columns (presolve time = 400s) ...
Presolve removed 28921920 rows and 8514503 columns (presolve time = 405s) ...
Presolve removed 28921920 rows and 8514503 columns (presolve time = 410s) ...
Presolve removed 28921920 rows and 8514503 columns (presolve time = 415s) ...
Presolve removed 28921920 rows and 8514503 columns (presolve time = 421s) ...
Presolve removed 28921920 rows and 8514503 columns (presolve time = 425s) ...
Presolve removed 28921920 rows and 8514503 columns (presolve time = 430s) ...
Presolve removed 28921920 rows and 8514503 columns (presolve time = 435s) ...
Presolve removed 28921920 rows and 8514503 columns (presolve time = 440s) ...
Presolve removed 28921920 rows and 8514503 columns (presolve time = 446s) ...
Presolve removed 28921920 rows and 8514503 columns
Presolve time: 449.25s
Presolved: 20280904 rows, 15431347 columns, 55573066 nonzeros
Variable types: 0 continuous, 15431347 integer (15431347 binary)
Found heuristic solution: objective 14075.238500
Concurrent LP optimizer: primal and dual simplex
Showing primal log only...


Root simplex log...

Iteration    Objective       Primal Inf.    Dual Inf.      Time
       0    1.4088104e+04   9.800000e+01   4.440000e+08    670s
      97    1.4083596e+04   0.000000e+00   1.084158e+05    672s
 9753254    1.4083596e+04   0.000000e+00   1.592640e+01    676s
 9792812    1.4083984e+04   0.000000e+00   2.168738e+02    691s
 9819042    1.4084341e+04   0.000000e+00   5.755000e+00    705s
 9824530    1.4084514e+04   0.000000e+00   9.404425e+01    720s
 9834438    1.4084660e+04   0.000000e+00   2.730780e+01    735s
 9834906    1.4084619e+04   1.800000e+01   0.000000e+00    741s
 9834949    1.4084619e+04   0.000000e+00   0.000000e+00    744s

Solved with primal simplex
 9834949    1.4084619e+04   0.000000e+00   5.796100e+00    748s
 9835098    1.4084619e+04   0.000000e+00   0.000000e+00    751s
Extra simplex iterations after uncrush: 149

Root relaxation: objective 1.408462e+04, 9835098 iterations, 200.06 seconds (297.09 work units)

    Nodes    |    Current Node    |     Objective Bounds      |     Work
 Expl Unexpl |  Obj  Depth IntInf | Incumbent    BestBd   Gap | It/Node Time

*    0     0               0    14084.618800 14084.6188  0.00%     -  770s

Explored 1 nodes (9835763 simplex iterations) in 772.35 seconds (956.42 work units)
Thread count was 32 (of 128 available processors)

Solution count 2: 14084.6 14075.2 

Optimal solution found (tolerance 1.00e-04)
Best objective 1.408461880000e+04, best bound 1.408461880003e+04, gap 0.0000%
Gurobi Optimizer version 11.0.3 build v11.0.3rc0 (linux64 - "Rocky Linux 9.4 (Blue Onyx)")

CPU model: AMD EPYC 7662 64-Core Processor, instruction set [SSE2|AVX|AVX2]
Thread count: 128 physical cores, 128 logical processors, using up to 32 threads

Optimize a model with 49191565 rows, 23945850 columns and 142240706 nonzeros
Model fingerprint: 0x50eaa6f6
Variable types: 0 continuous, 23945850 integer (23945850 binary)
Coefficient statistics:
  Matrix range     [1e+00, 1e+00]
  Objective range  [1e-04, 1e+00]
  Bounds range     [1e+00, 1e+00]
  RHS range        [1e+00, 2e+05]

Loaded MIP start from previous solve with objective 14084.6

Presolve removed 0 rows and 0 columns (presolve time = 5s) ...
Presolve removed 6841575 rows and 1050820 columns (presolve time = 10s) ...
Presolve removed 7002213 rows and 2963944 columns (presolve time = 15s) ...
Presolve removed 15053006 rows and 6591789 columns (presolve time = 21s) ...
Presolve removed 15053006 rows and 6591789 columns (presolve time = 25s) ...
Presolve removed 15053006 rows and 6595873 columns (presolve time = 32s) ...
Presolve removed 15053006 rows and 6595873 columns (presolve time = 38s) ...
Presolve removed 15262857 rows and 6595873 columns (presolve time = 44s) ...
Presolve removed 15262857 rows and 6595873 columns (presolve time = 46s) ...
Presolve removed 15262857 rows and 6619749 columns (presolve time = 50s) ...
Presolve removed 15263108 rows and 6620000 columns (presolve time = 57s) ...
Presolve removed 15502466 rows and 6880204 columns (presolve time = 62s) ...
Presolve removed 15502466 rows and 6880204 columns (presolve time = 67s) ...
Presolve removed 15502466 rows and 6880204 columns (presolve time = 73s) ...
Presolve removed 15502466 rows and 6880204 columns (presolve time = 75s) ...
Presolve removed 15502466 rows and 6880204 columns (presolve time = 80s) ...
Presolve removed 15502466 rows and 6880204 columns (presolve time = 86s) ...
Presolve removed 15502466 rows and 6880204 columns (presolve time = 90s) ...
Presolve removed 15587918 rows and 6882291 columns (presolve time = 95s) ...
Presolve removed 15587918 rows and 6883966 columns (presolve time = 100s) ...
Presolve removed 15587918 rows and 6883966 columns (presolve time = 107s) ...
Presolve removed 15587918 rows and 6883966 columns (presolve time = 112s) ...
Presolve removed 15587918 rows and 6887151 columns (presolve time = 115s) ...
Presolve removed 15588777 rows and 6891963 columns (presolve time = 122s) ...
Presolve removed 15588777 rows and 6892078 columns (presolve time = 125s) ...
Presolve removed 15588777 rows and 6892078 columns (presolve time = 131s) ...
Presolve removed 15588777 rows and 6892078 columns (presolve time = 135s) ...
Presolve removed 15588777 rows and 6892078 columns (presolve time = 140s) ...
Presolve removed 15588777 rows and 6892078 columns (presolve time = 145s) ...
Presolve removed 15606964 rows and 6898421 columns (presolve time = 156s) ...
Presolve removed 15606964 rows and 6898421 columns (presolve time = 162s) ...
Presolve removed 15606964 rows and 6900356 columns (presolve time = 165s) ...
Presolve removed 15607413 rows and 6900805 columns (presolve time = 170s) ...
Presolve removed 15607413 rows and 6900840 columns (presolve time = 175s) ...
Presolve removed 15607413 rows and 6900840 columns (presolve time = 180s) ...
Presolve removed 15607413 rows and 6900840 columns (presolve time = 185s) ...
Presolve removed 15613365 rows and 6902751 columns (presolve time = 190s) ...
Presolve removed 15613365 rows and 6902751 columns (presolve time = 195s) ...
Presolve removed 15613365 rows and 6902751 columns (presolve time = 201s) ...
Presolve removed 15613365 rows and 6902751 columns (presolve time = 207s) ...
Presolve removed 15613365 rows and 6902751 columns (presolve time = 212s) ...
Presolve removed 15613365 rows and 6902751 columns (presolve time = 218s) ...
Presolve removed 15613365 rows and 6902751 columns (presolve time = 220s) ...
Presolve removed 15613365 rows and 6902751 columns (presolve time = 226s) ...
Presolve removed 15613365 rows and 6902751 columns (presolve time = 230s) ...
Presolve removed 15613365 rows and 6902751 columns (presolve time = 236s) ...
Presolve removed 15613365 rows and 6902751 columns (presolve time = 241s) ...
Presolve removed 15613365 rows and 6902751 columns (presolve time = 245s) ...
Presolve removed 15613365 rows and 6902751 columns (presolve time = 250s) ...
Presolve removed 15613365 rows and 6902751 columns (presolve time = 255s) ...
Presolve removed 15613365 rows and 6902751 columns (presolve time = 260s) ...
Presolve removed 15613365 rows and 6902751 columns (presolve time = 265s) ...
Presolve removed 15613365 rows and 6902751 columns (presolve time = 270s) ...
Presolve removed 15613365 rows and 6902751 columns (presolve time = 275s) ...
Presolve removed 15613365 rows and 6902751 columns (presolve time = 280s) ...
Presolve removed 15613365 rows and 6902751 columns (presolve time = 285s) ...
Presolve removed 15613365 rows and 6902751 columns (presolve time = 293s) ...
Presolve removed 25597503 rows and 6902751 columns (presolve time = 295s) ...
Presolve removed 28422516 rows and 7844422 columns (presolve time = 300s) ...
Presolve removed 28422516 rows and 7844422 columns (presolve time = 305s) ...
Presolve removed 28422516 rows and 7844422 columns (presolve time = 310s) ...
Presolve removed 28422516 rows and 7844422 columns (presolve time = 315s) ...
Presolve removed 28422516 rows and 8018554 columns (presolve time = 320s) ...
Presolve removed 28422516 rows and 8087346 columns (presolve time = 325s) ...
Presolve removed 28422516 rows and 8087346 columns (presolve time = 334s) ...
Presolve removed 28422516 rows and 8087346 columns (presolve time = 337s) ...
Presolve removed 28422516 rows and 8122751 columns (presolve time = 340s) ...
Presolve removed 28422516 rows and 8183947 columns (presolve time = 346s) ...
Presolve removed 28430152 rows and 8192697 columns (presolve time = 350s) ...
Presolve removed 28430152 rows and 8192697 columns (presolve time = 355s) ...
Presolve removed 28457208 rows and 8192697 columns (presolve time = 360s) ...
Presolve removed 28458027 rows and 8193724 columns (presolve time = 368s) ...
Presolve removed 28458027 rows and 8193724 columns (presolve time = 370s) ...
Presolve removed 28458027 rows and 8200686 columns (presolve time = 376s) ...
Presolve removed 28466051 rows and 8208869 columns (presolve time = 381s) ...
Presolve removed 28466051 rows and 8208869 columns (presolve time = 385s) ...
Presolve removed 28473007 rows and 8209578 columns (presolve time = 391s) ...
Presolve removed 28473007 rows and 8209578 columns (presolve time = 395s) ...
Presolve removed 28473007 rows and 8209578 columns (presolve time = 400s) ...
Presolve removed 28473007 rows and 8209578 columns (presolve time = 405s) ...
Presolve removed 28473007 rows and 8209578 columns (presolve time = 410s) ...
Presolve removed 28473007 rows and 8209578 columns (presolve time = 415s) ...
Presolve removed 28473007 rows and 8209578 columns (presolve time = 420s) ...
Presolve removed 28473007 rows and 8209578 columns (presolve time = 425s) ...
Presolve removed 28473007 rows and 8209578 columns (presolve time = 431s) ...
Presolve removed 28473007 rows and 8209578 columns (presolve time = 436s) ...
Presolve removed 28473007 rows and 8209578 columns (presolve time = 440s) ...
Presolve removed 28473007 rows and 8209578 columns (presolve time = 445s) ...
Presolve removed 28473007 rows and 8209578 columns (presolve time = 450s) ...
Presolve removed 28473007 rows and 8209578 columns (presolve time = 455s) ...
Presolve removed 28473007 rows and 8209578 columns
Presolve time: 458.22s
Presolved: 20718558 rows, 15736272 columns, 56686682 nonzeros
Variable types: 0 continuous, 15736272 integer (15736272 binary)
Concurrent LP optimizer: primal and dual simplex
Showing primal log only...


Root simplex log...

Iteration    Objective       Primal Inf.    Dual Inf.      Time
       0    1.3963644e+04   8.090000e+02   1.316000e+09    597s
    1258    1.3753528e+04   0.000000e+00   1.133018e+05    599s
 9972846    1.3997541e+04   0.000000e+00   7.245119e+02    604s
 10032426    1.4028566e+04   0.000000e+00   3.301198e+03    622s
 10079050    1.4046788e+04   0.000000e+00   2.124544e+03    640s
 10138401    1.4061184e+04   0.000000e+00   7.013636e+02    661s
 10171362    1.4071962e+04   0.000000e+00   1.821342e+02    675s
 10186696    1.4079410e+04   0.000000e+00   1.395396e+02    691s
 10209390    1.4084791e+04   0.000000e+00   1.200228e+02    706s
 10227004    1.4088349e+04   0.000000e+00   1.231522e+02    721s
 10257595    1.4092996e+04   0.000000e+00   8.130815e+01    735s
 10283233    1.4096287e+04   0.000000e+00   1.184627e+02    751s
 10313917    1.4099111e+04   0.000000e+00   5.241360e+01    768s
 10334951    1.4101367e+04   0.000000e+00   5.958745e+01    786s
 10358424    1.4103118e+04   0.000000e+00   1.694404e+03    803s
 10395321    1.4104871e+04   0.000000e+00   2.856570e+01    821s
 10420012    1.4106498e+04   0.000000e+00   3.908310e+01    840s
 10445400    1.4107860e+04   0.000000e+00   6.901110e+02    861s
 10488488    1.4109349e+04   0.000000e+00   3.262211e+01    877s
 10514728    1.4111446e+04   0.000000e+00   1.929240e+01    900s
 10538229    1.4113458e+04   0.000000e+00   1.186189e+02    924s
 10567720    1.4114848e+04   0.000000e+00   1.040092e+03    948s
 10582328    1.4116353e+04   0.000000e+00   6.463432e+01    969s
 10589433    1.4117229e+04   0.000000e+00   5.878950e+00    987s
 10591495    1.4117518e+04   0.000000e+00   5.997485e+01   1004s
 10593886    1.4117696e+04   0.000000e+00   1.461272e+01   1020s
 10596630    1.4117937e+04   0.000000e+00   5.021334e+02   1036s
 10608701    1.4118537e+04   0.000000e+00   3.368400e+00   1056s
 10609271    1.4118671e+04   0.000000e+00   4.912118e+02   1072s
 10623670    1.4119070e+04   0.000000e+00   5.050908e+02   1090s
 10630201    1.4119330e+04   0.000000e+00   5.188669e+02   1106s
 10634103    1.4119560e+04   0.000000e+00   5.181208e+02   1123s
 10637194    1.4119865e+04   0.000000e+00   4.453979e+02   1140s
 10639341    1.4120075e+04   0.000000e+00   1.910725e+00   1157s
 10639582    1.4120192e+04   0.000000e+00   5.162918e+02   1174s
 10642180    1.4120416e+04   0.000000e+00   5.036811e+02   1190s
 10643606    1.4120678e+04   0.000000e+00   5.056160e+02   1207s
 10645378    1.4120880e+04   0.000000e+00   4.154533e+02   1224s
 10650078    1.4121206e+04   0.000000e+00   1.701666e+03   1241s
 10651874    1.4121376e+04   0.000000e+00   5.085687e+02   1257s
 10660528    1.4121728e+04   0.000000e+00   9.877500e-02   1274s
 10661071    1.4121547e+04   7.260000e+01   0.000000e+00   1283s
 10661347    1.4121547e+04   0.000000e+00   0.000000e+00   1296s

Solved with primal simplex
 10661347    1.4121547e+04   0.000000e+00   5.378900e+00   1300s
 10661497    1.4121547e+04   0.000000e+00   0.000000e+00   1304s
Extra simplex iterations after uncrush: 150

Root relaxation: objective 1.412155e+04, 10661497 iterations, 826.38 seconds (1790.65 work units)
Total elapsed time = 1422.94s (DegenMoves)
Total elapsed time = 1439.56s (DegenMoves)

    Nodes    |    Current Node    |     Objective Bounds      |     Work
 Expl Unexpl |  Obj  Depth IntInf | Incumbent    BestBd   Gap | It/Node Time

     0     0 14121.5468    0   27 14084.6188 14121.5468  0.26%     - 1450s
H    0     0                    14121.489900 14121.5468  0.00%     - 1478s

Explored 1 nodes (10678976 simplex iterations) in 1480.47 seconds (2539.48 work units)
Thread count was 32 (of 128 available processors)

Solution count 2: 14121.5 14084.6 

Optimal solution found (tolerance 1.00e-04)
Best objective 1.412148990000e+04, best bound 1.412154680003e+04, gap 0.0004%
